row=9;
column=9;

Board=[|0,9,5,0,0,3,0,0,7|1,0,0,2,9,0,0,4,3|2,4,0,0,7,8,0,9,1|0,0,0,0,0,0,0,0,0|0,0,0,0,0,0,0,0,4|0,3,0,7,4,2,0,1,5|0,6,0,0,2,4,0,0,8|0,0,1,5,0,7,0,0,0|0,8,0,0,0,6,7,0,0|];
OE=[|0,1,1,0,1,1,0,0,1|1,1,0,0,1,1,0,0,1|0,0,1,0,1,0,1,1,1|0,1,1,1,0,1,0,1,0|1,1,0,0,1,1,1,0,0|0,1,0,1,0,0,1,1,1|1,0,1,1,0,0,1,1,0|1,0,1,1,0,1,0,1,0|1,0,0,1,1,0,1,0,1|];
